c Sudoku solution
p cnf 729 0
187 0
223 0
236 0
278 0
299 0
349 0
375 0
396 0
444 0
476 0
524 0
538 0
577 0
622 0
657 0
681 0
733 0
745 0
754 0
779 0
834 0
851 0
863 0
872 0
967 0
959 0
247 0
974 0
171 0
541 0
673 0
694 0
143 0
383 0
942 0
712 0
993 0
791 0
897 0
727 0
284 0
192 0
332 0
317 0
114 0
364 0
261 0
215 0
321 0
139 0
128 0
358 0
252 0
437 0
411 0
513 0
616 0
453 0
648 0
918 0
819 0
931 0
429 0
635 0
589 0
669 0
846 0
768 0
786 0
985 0
888 0
825 0
926 0
482 0
595 0
498 0
465 0
562 0
556 0
155 0
166 0
